27	3	3
3	6	4	35	35	41	
0	0	0	0	2	7	2	1	5	1	25	2	3	4	5	6	7	8	9	10	11	12	13	14	15	16	17	18	19	20	21	22	23	24	25	26
4	1	3	1	6	2	10	5	2	7	4	27	22	5	24
2	1	1	2	8	1	1	9	6	2	4	27	22	13	24
3	0	0	1	8	7	10	7	8	2	2	27	18
2	0	2	0	5	4	2	9	3	9	6	27	20	15	7	26	8
3	0	1	1	1	4	6	2	4	10	9	27	9	22	17	19	18	14	21	23
1	1	1	1	2	10	1	2	5	3	2	27	15
5	1	2	0	9	2	4	9	10	9	3	27	21	19
4	1	0	2	10	8	5	10	4	3	5	27	25	14	19	17
5	1	2	1	1	8	6	3	7	8	2	27	26
3	1	3	1	2	7	2	7	9	6	2	27	16
4	0	2	2	6	1	5	7	2	10	1	27
1	0	0	2	9	10	2	2	9	1	3	27	14	23
1	1	3	1	1	8	9	6	8	2	4	27	22	16	15
1	0	1	0	8	9	10	4	1	6	2	27	18
2	0	0	2	1	2	3	3	9	1	1	27
5	0	3	1	8	4	2	3	1	4	1	27
5	1	3	1	2	10	3	4	1	1	2	27	22
1	1	2	2	5	2	9	3	7	6	3	27	24	23
3	1	1	2	4	5	5	3	8	5	2	27	25
3	0	1	0	8	8	7	10	10	6	1	27
4	0	0	1	1	8	9	2	10	10	1	27
1	0	0	1	5	2	9	8	5	10	1	27
5	0	3	0	9	9	1	8	2	7	1	27
3	0	2	1	4	5	1	8	7	8	1	27
1	0	2	1	3	5	6	10	5	6	1	27
0	0	0	0	5	6	3	4	7	3	0
